WARNING: for repeatability, setting FPU to use double precision
============================[ Problem Statistics ]=============================
|                                                                             |
|  Number of variables:           100                                         |
|  Number of clauses:             449                                         |
|  Parse time:                   0.00 s                                       |
|  Eliminated clauses:           0.00 Mb                                      |
|  Simplification time:          0.00 s                                       |
|                                                                             |
============================[ Search Statistics ]==============================
| Conflicts |          ORIGINAL         |          LEARNT          | Progress |
|           |    Vars  Clauses Literals |    Limit  Clauses Lit/Cl |          |
===============================================================================
|       100 |      98      446     1356 |      163      100      9 |  0.010 % |
|       250 |      98      446     1356 |      179      166      6 |  0.010 % |
===============================================================================
restarts              : 3
conflicts             : 348            (93523 /sec)
decisions             : 428            (0.00 % random) (115023 /sec)
propagations          : 7940           (2133835 /sec)
conflict literals     : 2408           (15.09 % deleted)
Memory used           : 13.00 MB
CPU time              : 0.003721 s

SATISFIABLE
